
Gurobi 11.0.3 (linux64) logging started Fri Nov 22 05:33:45 2024

Set parameter LogFile to value "/home/yihong/Coding/OR_SUC/SUC_results_bigM100000_thread4/case24_ieee_rts_theta0.1_epsilon0.05_gurobi_seed840000_num_gen100_N_WDR100_load_scaling_factor1_exact_T12quadra_cost.txt"
Set parameter TimeLimit to value 3600
Gurobi Optimizer version 11.0.3 build v11.0.3rc0 (linux64 - "Ubuntu 20.04.6 LTS")

CPU model: AMD EPYC 7532 32-Core Processor, instruction set [SSE2|AVX|AVX2]
Thread count: 64 physical cores, 128 logical processors, using up to 4 threads

Optimize a model with 28631 rows, 15081 columns and 662130 nonzeros
Model fingerprint: 0xdf7f59d4
Model has 1200 quadratic constraints
Variable types: 13781 continuous, 1300 integer (1300 binary)
Coefficient statistics:
  Matrix range     [3e-04, 1e+05]
  QMatrix range    [2e-03, 8e-03]
  QLMatrix range   [8e-01, 6e+01]
  Objective range  [1e+00, 1e+00]
  Bounds range     [1e+00, 1e+00]
  RHS range        [1e+00, 1e+05]
Presolve removed 23534 rows and 6518 columns
Presolve time: 0.15s
Presolved: 5097 rows, 8563 columns, 29011 nonzeros
Presolved model has 1200 quadratic constraint(s)
Variable types: 7285 continuous, 1278 integer (1278 binary)

Root relaxation: objective 1.411420e+04, 4128 iterations, 0.09 seconds (0.13 work units)

    Nodes    |    Current Node    |     Objective Bounds      |     Work
 Expl Unexpl |  Obj  Depth IntInf | Incumbent    BestBd   Gap | It/Node Time

     0     0 14114.2001    0    9          - 14114.2001      -     -    0s
     0     0 99518.0226    0  447          - 99518.0226      -     -    0s
     0     0 99797.8228    0  448          - 99797.8228      -     -    0s
     0     0 241996.278    0  350          - 241996.278      -     -    0s
     0     0 242020.950    0  244          - 242020.950      -     -    0s
     0     0 242843.909    0  174          - 242843.909      -     -    0s
     0     0 242904.315    0  172          - 242904.315      -     -    0s
     0     0 243125.798    0  177          - 243125.798      -     -    0s
     0     0 243144.318    0  177          - 243144.318      -     -    0s
     0     2 243144.318    0  177          - 243144.318      -     -    1s
H  313   239                    243345.20984 243233.561  0.05%  17.6    1s
*  313   239              91    243345.20984 243233.561  0.05%  17.7    1s

Cutting planes:
  Gomory: 43
  Implied bound: 326
  MIR: 77
  Flow cover: 75

Explored 349 nodes (17540 simplex iterations) in 2.05 seconds (2.84 work units)
Thread count was 4 (of 128 available processors)

Solution count 2: 243345 243345 

Optimal solution found (tolerance 1.00e-03)
Warning: max constraint violation (8.3821e-08) exceeds tolerance
Best objective 2.433452098407e+05, best bound 2.432335610332e+05, gap 0.0459%
